10
80
0 1 4 17
0 2 18 6
0 3 17 9
0 4 38 22
0 5 58 55
0 6 52 28
0 7 35 68
0 8 45 1
0 9 58 69
1 2 38 69
1 3 69 66
1 4 40 64
1 5 51 1
1 6 50 37
1 7 79 48
1 8 68 16
1 9 54 7
2 3 20 8
2 4 29 40
2 5 32 33
2 6 76 68
2 7 47 8
2 8 4 32
2 9 9 5
3 4 22 56
3 5 29 11
3 6 39 36
3 7 69 3
3 8 42 39
3 9 49 77
4 5 39 37
4 6 14 7
4 7 66 42
4 8 38 46
4 9 17 74
5 6 53 16
5 7 59 76
5 8 57 78
5 9 77 1
6 7 14 20
6 8 75 42
6 9 49 57
7 8 60 50
7 9 0 54
8 9 50 25